WARNING: for repeatability, setting FPU to use double precision
============================[ Problem Statistics ]=============================
|                                                                             |
|  Number of symmetries:          37                                          |
|  Number of invertingSyms:        0                                          |
|  Number of variables:           380                                         |
|  Number of clauses:            3630                                         |
|  Parse time:                   0.00 s                                       |
|                                                                             |
============================[ Search Statistics ]==============================
| Conflicts |          ORIGINAL         |          LEARNT          | Progress |
|           |    Vars  Clauses Literals |    Limit  Clauses Lit/Cl |          |
===============================================================================
|       100 |     380     3630     7600 |     1331      100    149 |  0.001 % |
|       250 |     380     3630     7600 |     1464      252    120 |  0.001 % |
|       475 |     380     3630     7600 |     1610      485    101 |  0.001 % |
|       812 |     380     3630     7600 |     1771      845     95 |  0.001 % |
|      1318 |     380     3630     7600 |     1948     1439     89 |  0.001 % |
|      2077 |     380     3630     7600 |     2143     1288     85 |  0.001 % |
|      3216 |     380     3630     7600 |     2357     1591     92 |  0.001 % |
|      4924 |     380     3630     7600 |     2593     1334    123 |  0.001 % |
|      7486 |     380     3630     7600 |     2853     1779    148 |  0.001 % |
|     11330 |     380     3630     7600 |     3138     2115    170 |  0.001 % |
|     17096 |     380     3630     7600 |     3452     2383    161 |  0.001 % |
|     25745 |     380     3630     7600 |     3797     2663    159 |  0.001 % |
|     38719 |     380     3630     7600 |     4177     3258    152 |  0.001 % |
|     58180 |     380     3630     7600 |     4594     2880    139 |  0.001 % |
|     87372 |     380     3630     7600 |     5054     2613    153 |  0.001 % |
|    131161 |     380     3630     7600 |     5559     2639    156 |  0.001 % |
|    196845 |     380     3630     7600 |     6115     4808    199 |  0.001 % |
|    295371 |     380     3630     7600 |     6727     5816    186 |  0.001 % |
|    443160 |     380     3630     7600 |     7400     4702    167 |  0.001 % |
|    664843 |     380     3630     7600 |     8140     4258    147 |  0.001 % |
|    997368 |     380     3630     7600 |     8954     6294    150 |  0.001 % |
|   1496156 |     380     3630     7600 |     9849     7874    140 |  0.001 % |
|   2244338 |     380     3630     7600 |    10834     5840    124 |  0.001 % |
|   3366612 |     380     3630     7600 |    11918     6356    141 |  0.001 % |
|   5050023 |     380     3630     7600 |    13109     6297    152 |  0.001 % |
|   7575139 |     380     3630     7600 |    14420    12735    129 |  0.001 % |
|  11362814 |     380     3630     7600 |    15863    12038    175 |  0.001 % |
|  17044326 |     380     3630     7600 |    17449    13248    150 |  0.001 % |
|  25566595 |     380     3630     7600 |    19194    13557    139 |  0.001 % |
|  38349998 |     380     3630     7600 |    21113    13252    217 |  0.001 % |
===============================================================================
restarts              : 65531
conflicts             : 46195765       (9088 /sec)
symconflicts          : 2771560        (545 /sec)
decisions             : 75812464       (0.00 % random) (14914 /sec)
propagations          : 885082593      (174114 /sec)
sympropagations       : 9566931        (1882 /sec)
conflict literals     : 7120649755     (7.57 % deleted)
Memory used           : 105.00 MB
CPU time              : 5083.36 s

INDETERMINATE
